TCS_Benchmarks/redos_fix/regexlib1_output_distinct_3031_3030_8_0.txt
 {0,4}
[cCvVxXiIlL]*